&control
    calculation='vc-relax'
    restart_mode='from_scratch',
    prefix='silicon',
    pseudo_dir='./',
    outdir='./'

 /
 &system
    ibrav= 0, celldm(1)=10.2, nat=  32, ntyp= 1,
    ecutwfc = 20.0
 /
 &electrons
    diagonalization='david',
    conv_thr =  1.0d-8,
    mixing_beta = 0.5,
    startingwfc='random',
 /
&ions
/
&cell
/
ATOMIC_SPECIES
 Si  28.086 Si.pz-vbc.UPF
CELL_PARAMETERS
2.0  0.0 0.0
0.0  2.0  0.0
0.0  0.0 1.0
ATOMIC_POSITIONS angstrom
 Si -0.674624979     -0.674624979     -0.674624979    
 Si   2.02387500       2.02387500     -0.674624979    
 Si   2.02387500     -0.674624979       2.02387500    
 Si -0.674624979       2.02387500       2.02387500    
 Si  0.674624979      0.674624979      0.674624979    
 Si  -2.02387500      -2.02387500      0.674624979    
 Si  -2.02387500      0.674624979      -2.02387500    
 Si  0.674624979      -2.02387500      -2.02387500    
 Si   4.72237492     -0.674624979     -0.674624979    
 Si  -3.37312484       2.02387500     -0.674624979    
 Si  -3.37312484     -0.674624979       2.02387500    
 Si   4.72237492       2.02387500       2.02387500    
 Si  -4.72237492      0.674624979      0.674624979    
 Si   3.37312484      -2.02387500      0.674624979    
 Si   3.37312484      0.674624979      -2.02387500    
 Si  -4.72237492      -2.02387500      -2.02387500    
 Si -0.674624979       4.72237492     -0.674624979    
 Si   2.02387500      -3.37312484     -0.674624979    
 Si   2.02387500       4.72237492       2.02387500    
 Si -0.674624979      -3.37312484       2.02387500    
 Si  0.674624979      -4.72237492      0.674624979    
 Si  -2.02387500       3.37312484      0.674624979    
 Si  -2.02387500      -4.72237492      -2.02387500    
 Si  0.674624979       3.37312484      -2.02387500    
 Si   4.72237492       4.72237492     -0.674624979    
 Si  -3.37312484      -3.37312484     -0.674624979    
 Si  -3.37312484       4.72237492       2.02387500    
 Si   4.72237492      -3.37312484       2.02387500    
 Si  -4.72237492      -4.72237492      0.674624979    
 Si   3.37312484       3.37312484      0.674624979    
 Si   3.37312484      -4.72237492      -2.02387500    
 Si  -4.72237492       3.37312484      -2.02387500  
K_POINTS automatic
1 1 1 0 0 0  
